mlkem-native/cvc5/shake128_absorb_once_harness.smt2
; SMT 2
; Generated for CVC 5
(set-info :source "Generated by CBMC 6.8.0 (n/a)")
(set-logic ALL)

; find_symbols
(declare-fun |__CPROVER_contracts_is_fresh::$tmp::return_value___VERIFIER_nondet___CPROVER_bool$1!0@1#2| () Bool)
; convert
; Converting var_no 0 with expr ID of symbol
(define-fun B0 () Bool |__CPROVER_contracts_is_fresh::$tmp::return_value___VERIFIER_nondet___CPROVER_bool$1!0@1#2|)

; convert
; Converting var_no 1 with expr ID of symbol
(define-fun B1 () Bool |__CPROVER_contracts_is_fresh::$tmp::return_value___VERIFIER_nondet___CPROVER_bool$1!0@1#2|)

; convert
; Converting var_no 2 with expr ID of symbol
(define-fun B2 () Bool |__CPROVER_contracts_is_fresh::$tmp::return_value___VERIFIER_nondet___CPROVER_bool$1!0@1#2|)

; convert
; Converting var_no 3 with expr ID of symbol
(define-fun B3 () Bool |__CPROVER_contracts_is_fresh::$tmp::return_value___VERIFIER_nondet___CPROVER_bool$1!0@1#2|)

; find_symbols
(declare-fun |__CPROVER_contracts_is_fresh::$tmp::return_value___VERIFIER_nondet___CPROVER_bool$1!0@2#2| () Bool)
; convert
; Converting var_no 4 with expr ID of symbol
(define-fun B4 () Bool |__CPROVER_contracts_is_fresh::$tmp::return_value___VERIFIER_nondet___CPROVER_bool$1!0@2#2|)

; convert
; Converting var_no 5 with expr ID of symbol
(define-fun B5 () Bool |__CPROVER_contracts_is_fresh::$tmp::return_value___VERIFIER_nondet___CPROVER_bool$1!0@2#2|)

; convert
; Converting var_no 6 with expr ID of symbol
(define-fun B6 () Bool |__CPROVER_contracts_is_fresh::$tmp::return_value___VERIFIER_nondet___CPROVER_bool$1!0@2#2|)

; convert
; Converting var_no 7 with expr ID of symbol
(define-fun B7 () Bool |__CPROVER_contracts_is_fresh::$tmp::return_value___VERIFIER_nondet___CPROVER_bool$1!0@2#2|)

; convert
; Converting var_no 8 with expr ID of symbol
(define-fun B8 () Bool |__CPROVER_contracts_is_fresh::$tmp::return_value___VERIFIER_nondet___CPROVER_bool$1!0@2#2|)

; convert
; Converting var_no 9 with expr ID of symbol
(define-fun B9 () Bool |__CPROVER_contracts_is_fresh::$tmp::return_value___VERIFIER_nondet___CPROVER_bool$1!0@2#2|)

; convert
; Converting var_no 10 with expr ID of symbol
(define-fun B10 () Bool |__CPROVER_contracts_is_fresh::$tmp::return_value___VERIFIER_nondet___CPROVER_bool$1!0@2#2|)

; convert
; Converting var_no 11 with expr ID of symbol
(define-fun B11 () Bool |__CPROVER_contracts_is_fresh::$tmp::return_value___VERIFIER_nondet___CPROVER_bool$1!0@2#2|)

; find_symbols
(declare-fun |goto_symex::&92;guard#1| () Bool)
; convert
; Converting var_no 12 with expr ID of symbol
(define-fun B12 () Bool |goto_symex::&92;guard#1|)

; convert
; Converting var_no 13 with expr ID of symbol
(define-fun B13 () Bool |goto_symex::&92;guard#1|)

; convert
; Converting var_no 14 with expr ID of symbol
(define-fun B14 () Bool |goto_symex::&92;guard#1|)

; convert
; Converting var_no 15 with expr ID of symbol
(define-fun B15 () Bool |goto_symex::&92;guard#1|)

; convert
; Converting var_no 16 with expr ID of symbol
(define-fun B16 () Bool |goto_symex::&92;guard#1|)

; convert
; Converting var_no 17 with expr ID of symbol
(define-fun B17 () Bool |goto_symex::&92;guard#1|)

; convert
; Converting var_no 18 with expr ID of symbol
(define-fun B18 () Bool |goto_symex::&92;guard#1|)

; convert
; Converting var_no 19 with expr ID of not
(define-fun B19 () Bool (not |goto_symex::&92;guard#1|))

; find_symbols
(declare-fun |harness::1::inlen!0@1#1| () (_ BitVec 64))
; set_to true (equal)
(define-fun |mlk_shake128_absorb_once::inlen_wrapper!0@1#1| () (_ BitVec 64) |harness::1::inlen!0@1#1|)

; set_to true (equal)
(define-fun |__CPROVER_contracts_is_fresh::size!0@2#1| () (_ BitVec 64) |mlk_shake128_absorb_once::inlen_wrapper!0@1#1|)

; set_to true (equal)
(define-fun |symex_dynamic::dynamic_object_size!0#1| () (_ BitVec 64) |__CPROVER_contracts_is_fresh::size!0@2#1|)

; find_symbols
(declare-fun |nondet_symex::nondet6| () Bool)
; set_to true
(assert (= |__CPROVER_contracts_is_fresh::$tmp::return_value___VERIFIER_nondet___CPROVER_bool$1!0@2#2| |nondet_symex::nondet6|))

; set_to true (equal)
(define-fun |__CPROVER_contracts_car_create::size!0@2#1| () (_ BitVec 64) |__CPROVER_contracts_is_fresh::size!0@2#1|)

; set_to true (equal)
(define-fun |mlk_shake128_absorb_once::inlen!0@1#1| () (_ BitVec 64) |mlk_shake128_absorb_once::inlen_wrapper!0@1#1|)

; set_to true (equal)
(define-fun |mlk_keccak_absorb_once::mlen_wrapper!0@1#1| () (_ BitVec 64) |mlk_shake128_absorb_once::inlen!0@1#1|)

; set_to true (equal)
(define-fun |__CPROVER_contracts_is_fresh::size!0@4#1| () (_ BitVec 64) |mlk_keccak_absorb_once::mlen_wrapper!0@1#1|)

; set_to true (equal)
(define-fun |__CPROVER_contracts_car_create::size!0@4#1| () (_ BitVec 64) |__CPROVER_contracts_is_fresh::size!0@4#1|)

; set_to true
(assert (= |goto_symex::&92;guard#1| (bvuge ((_ zero_extend 1) |symex_dynamic::dynamic_object_size!0#1|) ((_ zero_extend 1) |__CPROVER_contracts_is_fresh::size!0@4#1|))))

; set_to true (equal)
(define-fun |goto_symex::return_value::__CPROVER_contracts_is_fresh!0#6| () Bool |goto_symex::&92;guard#1|)

; set_to true (equal)
(define-fun |goto_convertt::return_value___CPROVER_is_fresh$2!0@1#2| () Bool |goto_symex::return_value::__CPROVER_contracts_is_fresh!0#6|)

; convert
; Converting var_no 20 with expr ID of =
(define-fun B20 () Bool (= |harness::1::inlen!0@1#1| |harness::1::inlen!0@1#1|))

; convert
; Converting var_no 21 with expr ID of =
(define-fun B21 () Bool (= |harness::1::inlen!0@1#1| |harness::1::inlen!0@1#1|))

; convert
; Converting var_no 22 with expr ID of not
(define-fun B22 () Bool (not (bvuge |mlk_shake128_absorb_once::inlen_wrapper!0@1#1| (_ bv4503599627370496 64))))

; convert
; Converting var_no 23 with expr ID of not
(define-fun B23 () Bool (not (bvuge |__CPROVER_contracts_is_fresh::size!0@2#1| (_ bv36028797018963969 64))))

; convert
; Converting var_no 24 with expr ID of not
(define-fun B24 () Bool (not |__CPROVER_contracts_is_fresh::$tmp::return_value___VERIFIER_nondet___CPROVER_bool$1!0@1#2|))

; convert
; Converting var_no 25 with expr ID of not
(define-fun B25 () Bool (not |__CPROVER_contracts_is_fresh::$tmp::return_value___VERIFIER_nondet___CPROVER_bool$1!0@2#2|))

; convert
; Converting var_no 26 with expr ID of not
(define-fun B26 () Bool (not (bvuge ((_ zero_extend 1) |symex_dynamic::dynamic_object_size!0#1|) ((_ zero_extend 1) |__CPROVER_contracts_is_fresh::size!0@4#1|))))

(declare-datatypes ((struct.0 0)) (((mk-struct.0 (struct.0.ctx (Array (_ BitVec 64) (_ BitVec 64))) (struct.0.$pad1 (_ BitVec 192)) ))))
(define-fun update-struct.0.ctx ((s struct.0) (v (Array (_ BitVec 64) (_ BitVec 64)))) struct.0 (mk-struct.0 v (struct.0.$pad1 s) ))
(define-fun update-struct.0.$pad1 ((s struct.0) (v (_ BitVec 192))) struct.0 (mk-struct.0 (struct.0.ctx s) v ))

; find_symbols
(declare-fun |symex::args::0| () (_ BitVec 64))
; set_to true (equal)
(define-fun |harness::1::state!0@1#1| () (_ BitVec 64) |symex::args::0|)

; find_symbols
(declare-fun |symex::args::1| () (_ BitVec 64))
; set_to true (equal)
(define-fun |harness::1::input!0@1#1| () (_ BitVec 64) |symex::args::1|)

; find_symbols
(declare-fun |symex::args::2| () (_ BitVec 64))
; set_to true
(assert (= |harness::1::inlen!0@1#1| |symex::args::2|))

(declare-datatypes ((struct.4 0)) (((mk-struct.4 (struct.4.is_writable (_ BitVec 8)) (struct.4.$pad1 (_ BitVec 56)) (struct.4.size (_ BitVec 64)) (struct.4.lb (_ BitVec 64)) (struct.4.ub (_ BitVec 64)) ))))
(define-fun update-struct.4.is_writable ((s struct.4) (v (_ BitVec 8))) struct.4 (mk-struct.4 v (struct.4.$pad1 s) (struct.4.size s) (struct.4.lb s) (struct.4.ub s) ))
(define-fun update-struct.4.$pad1 ((s struct.4) (v (_ BitVec 56))) struct.4 (mk-struct.4 (struct.4.is_writable s) v (struct.4.size s) (struct.4.lb s) (struct.4.ub s) ))
(define-fun update-struct.4.size ((s struct.4) (v (_ BitVec 64))) struct.4 (mk-struct.4 (struct.4.is_writable s) (struct.4.$pad1 s) v (struct.4.lb s) (struct.4.ub s) ))
(define-fun update-struct.4.lb ((s struct.4) (v (_ BitVec 64))) struct.4 (mk-struct.4 (struct.4.is_writable s) (struct.4.$pad1 s) (struct.4.size s) v (struct.4.ub s) ))
(define-fun update-struct.4.ub ((s struct.4) (v (_ BitVec 64))) struct.4 (mk-struct.4 (struct.4.is_writable s) (struct.4.$pad1 s) (struct.4.size s) (struct.4.lb s) v ))

(declare-datatypes ((struct.3 0)) (((mk-struct.3 (struct.3.max_elems (_ BitVec 64)) (struct.3.elems (_ BitVec 64)) ))))
(define-fun update-struct.3.max_elems ((s struct.3) (v (_ BitVec 64))) struct.3 (mk-struct.3 v (struct.3.elems s) ))
(define-fun update-struct.3.elems ((s struct.3) (v (_ BitVec 64))) struct.3 (mk-struct.3 (struct.3.max_elems s) v ))

(declare-datatypes ((struct.7 0)) (((mk-struct.7 (struct.7.max_elems (_ BitVec 64)) (struct.7.watermark (_ BitVec 64)) (struct.7.nof_elems (_ BitVec 64)) (struct.7.is_empty (_ BitVec 8)) (struct.7.indexed_by_object_id (_ BitVec 8)) (struct.7.$pad5 (_ BitVec 48)) (struct.7.elems (_ BitVec 64)) ))))
(define-fun update-struct.7.max_elems ((s struct.7) (v (_ BitVec 64))) struct.7 (mk-struct.7 v (struct.7.watermark s) (struct.7.nof_elems s) (struct.7.is_empty s) (struct.7.indexed_by_object_id s) (struct.7.$pad5 s) (struct.7.elems s) ))
(define-fun update-struct.7.watermark ((s struct.7) (v (_ BitVec 64))) struct.7 (mk-struct.7 (struct.7.max_elems s) v (struct.7.nof_elems s) (struct.7.is_empty s) (struct.7.indexed_by_object_id s) (struct.7.$pad5 s) (struct.7.elems s) ))
(define-fun update-struct.7.nof_elems ((s struct.7) (v (_ BitVec 64))) struct.7 (mk-struct.7 (struct.7.max_elems s) (struct.7.watermark s) v (struct.7.is_empty s) (struct.7.indexed_by_object_id s) (struct.7.$pad5 s) (struct.7.elems s) ))
(define-fun update-struct.7.is_empty ((s struct.7) (v (_ BitVec 8))) struct.7 (mk-struct.7 (struct.7.max_elems s) (struct.7.watermark s) (struct.7.nof_elems s) v (struct.7.indexed_by_object_id s) (struct.7.$pad5 s) (struct.7.elems s) ))
(define-fun update-struct.7.indexed_by_object_id ((s struct.7) (v (_ BitVec 8))) struct.7 (mk-struct.7 (struct.7.max_elems s) (struct.7.watermark s) (struct.7.nof_elems s) (struct.7.is_empty s) v (struct.7.$pad5 s) (struct.7.elems s) ))
(define-fun update-struct.7.$pad5 ((s struct.7) (v (_ BitVec 48))) struct.7 (mk-struct.7 (struct.7.max_elems s) (struct.7.watermark s) (struct.7.nof_elems s) (struct.7.is_empty s) (struct.7.indexed_by_object_id s) v (struct.7.elems s) ))
(define-fun update-struct.7.elems ((s struct.7) (v (_ BitVec 64))) struct.7 (mk-struct.7 (struct.7.max_elems s) (struct.7.watermark s) (struct.7.nof_elems s) (struct.7.is_empty s) (struct.7.indexed_by_object_id s) (struct.7.$pad5 s) v ))

(declare-datatypes ((struct.9 0)) (((mk-struct.9 (struct.9.fresh_car struct.4) (struct.9.ptr_pred (_ BitVec 64)) ))))
(define-fun update-struct.9.fresh_car ((s struct.9) (v struct.4)) struct.9 (mk-struct.9 v (struct.9.ptr_pred s) ))
(define-fun update-struct.9.ptr_pred ((s struct.9) (v (_ BitVec 64))) struct.9 (mk-struct.9 (struct.9.fresh_car s) v ))

(declare-datatypes ((struct.2 0)) (((mk-struct.2 (struct.2.contract_assigns struct.3) (struct.2.contract_frees struct.7) (struct.2.contract_frees_append struct.7) (struct.2.allocated struct.7) (struct.2.deallocated struct.7) (struct.2.linked_ptr_pred_ctx (_ BitVec 64)) (struct.2.linked_allocated (_ BitVec 64)) (struct.2.linked_deallocated (_ BitVec 64)) (struct.2.assume_requires_ctx (_ BitVec 8)) (struct.2.assert_requires_ctx (_ BitVec 8)) (struct.2.assume_ensures_ctx (_ BitVec 8)) (struct.2.assert_ensures_ctx (_ BitVec 8)) (struct.2.allow_allocate (_ BitVec 8)) (struct.2.allow_deallocate (_ BitVec 8)) (struct.2.$pad14 (_ BitVec 16)) ))))
(define-fun update-struct.2.contract_assigns ((s struct.2) (v struct.3)) struct.2 (mk-struct.2 v (struct.2.contract_frees s) (struct.2.contract_frees_append s) (struct.2.allocated s) (struct.2.deallocated s) (struct.2.linked_ptr_pred_ctx s) (struct.2.linked_allocated s) (struct.2.linked_deallocated s) (struct.2.assume_requires_ctx s) (struct.2.assert_requires_ctx s) (struct.2.assume_ensures_ctx s) (struct.2.assert_ensures_ctx s) (struct.2.allow_allocate s) (struct.2.allow_deallocate s) (struct.2.$pad14 s) ))
(define-fun update-struct.2.contract_frees ((s struct.2) (v struct.7)) struct.2 (mk-struct.2 (struct.2.contract_assigns s) v (struct.2.contract_frees_append s) (struct.2.allocated s) (struct.2.deallocated s) (struct.2.linked_ptr_pred_ctx s) (struct.2.linked_allocated s) (struct.2.linked_deallocated s) (struct.2.assume_requires_ctx s) (struct.2.assert_requires_ctx s) (struct.2.assume_ensures_ctx s) (struct.2.assert_ensures_ctx s) (struct.2.allow_allocate s) (struct.2.allow_deallocate s) (struct.2.$pad14 s) ))
(define-fun update-struct.2.contract_frees_append ((s struct.2) (v struct.7)) struct.2 (mk-struct.2 (struct.2.contract_assigns s) (struct.2.contract_frees s) v (struct.2.allocated s) (struct.2.deallocated s) (struct.2.linked_ptr_pred_ctx s) (struct.2.linked_allocated s) (struct.2.linked_deallocated s) (struct.2.assume_requires_ctx s) (struct.2.assert_requires_ctx s) (struct.2.assume_ensures_ctx s) (struct.2.assert_ensures_ctx s) (struct.2.allow_allocate s) (struct.2.allow_deallocate s) (struct.2.$pad14 s) ))
(define-fun update-struct.2.allocated ((s struct.2) (v struct.7)) struct.2 (mk-struct.2 (struct.2.contract_assigns s) (struct.2.contract_frees s) (struct.2.contract_frees_append s) v (struct.2.deallocated s) (struct.2.linked_ptr_pred_ctx s) (struct.2.linked_allocated s) (struct.2.linked_deallocated s) (struct.2.assume_requires_ctx s) (struct.2.assert_requires_ctx s) (struct.2.assume_ensures_ctx s) (struct.2.assert_ensures_ctx s) (struct.2.allow_allocate s) (struct.2.allow_deallocate s) (struct.2.$pad14 s) ))
(define-fun update-struct.2.deallocated ((s struct.2) (v struct.7)) struct.2 (mk-struct.2 (struct.2.contract_assigns s) (struct.2.contract_frees s) (struct.2.contract_frees_append s) (struct.2.allocated s) v (struct.2.linked_ptr_pred_ctx s) (struct.2.linked_allocated s) (struct.2.linked_deallocated s) (struct.2.assume_requires_ctx s) (struct.2.assert_requires_ctx s) (struct.2.assume_ensures_ctx s) (struct.2.assert_ensures_ctx s) (struct.2.allow_allocate s) (struct.2.allow_deallocate s) (struct.2.$pad14 s) ))
(define-fun update-struct.2.linked_ptr_pred_ctx ((s struct.2) (v (_ BitVec 64))) struct.2 (mk-struct.2 (struct.2.contract_assigns s) (struct.2.contract_frees s) (struct.2.contract_frees_append s) (struct.2.allocated s) (struct.2.deallocated s) v (struct.2.linked_allocated s) (struct.2.linked_deallocated s) (struct.2.assume_requires_ctx s) (struct.2.assert_requires_ctx s) (struct.2.assume_ensures_ctx s) (struct.2.assert_ensures_ctx s) (struct.2.allow_allocate s) (struct.2.allow_deallocate s) (struct.2.$pad14 s) ))
(define-fun update-struct.2.linked_allocated ((s struct.2) (v (_ BitVec 64))) struct.2 (mk-struct.2 (struct.2.contract_assigns s) (struct.2.contract_frees s) (struct.2.contract_frees_append s) (struct.2.allocated s) (struct.2.deallocated s) (struct.2.linked_ptr_pred_ctx s) v (struct.2.linked_deallocated s) (struct.2.assume_requires_ctx s) (struct.2.assert_requires_ctx s) (struct.2.assume_ensures_ctx s) (struct.2.assert_ensures_ctx s) (struct.2.allow_allocate s) (struct.2.allow_deallocate s) (struct.2.$pad14 s) ))
(define-fun update-struct.2.linked_deallocated ((s struct.2) (v (_ BitVec 64))) struct.2 (mk-struct.2 (struct.2.contract_assigns s) (struct.2.contract_frees s) (struct.2.contract_frees_append s) (struct.2.allocated s) (struct.2.deallocated s) (struct.2.linked_ptr_pred_ctx s) (struct.2.linked_allocated s) v (struct.2.assume_requires_ctx s) (struct.2.assert_requires_ctx s) (struct.2.assume_ensures_ctx s) (struct.2.assert_ensures_ctx s) (struct.2.allow_allocate s) (struct.2.allow_deallocate s) (struct.2.$pad14 s) ))
(define-fun update-struct.2.assume_requires_ctx ((s struct.2) (v (_ BitVec 8))) struct.2 (mk-struct.2 (struct.2.contract_assigns s) (struct.2.contract_frees s) (struct.2.contract_frees_append s) (struct.2.allocated s) (struct.2.deallocated s) (struct.2.linked_ptr_pred_ctx s) (struct.2.linked_allocated s) (struct.2.linked_deallocated s) v (struct.2.assert_requires_ctx s) (struct.2.assume_ensures_ctx s) (struct.2.assert_ensures_ctx s) (struct.2.allow_allocate s) (struct.2.allow_deallocate s) (struct.2.$pad14 s) ))
(define-fun update-struct.2.assert_requires_ctx ((s struct.2) (v (_ BitVec 8))) struct.2 (mk-struct.2 (struct.2.contract_assigns s) (struct.2.contract_frees s) (struct.2.contract_frees_append s) (struct.2.allocated s) (struct.2.deallocated s) (struct.2.linked_ptr_pred_ctx s) (struct.2.linked_allocated s) (struct.2.linked_deallocated s) (struct.2.assume_requires_ctx s) v (struct.2.assume_ensures_ctx s) (struct.2.assert_ensures_ctx s) (struct.2.allow_allocate s) (struct.2.allow_deallocate s) (struct.2.$pad14 s) ))
(define-fun update-struct.2.assume_ensures_ctx ((s struct.2) (v (_ BitVec 8))) struct.2 (mk-struct.2 (struct.2.contract_assigns s) (struct.2.contract_frees s) (struct.2.contract_frees_append s) (struct.2.allocated s) (struct.2.deallocated s) (struct.2.linked_ptr_pred_ctx s) (struct.2.linked_allocated s) (struct.2.linked_deallocated s) (struct.2.assume_requires_ctx s) (struct.2.assert_requires_ctx s) v (struct.2.assert_ensures_ctx s) (struct.2.allow_allocate s) (struct.2.allow_deallocate s) (struct.2.$pad14 s) ))
(define-fun update-struct.2.assert_ensures_ctx ((s struct.2) (v (_ BitVec 8))) struct.2 (mk-struct.2 (struct.2.contract_assigns s) (struct.2.contract_frees s) (struct.2.contract_frees_append s) (struct.2.allocated s) (struct.2.deallocated s) (struct.2.linked_ptr_pred_ctx s) (struct.2.linked_allocated s) (struct.2.linked_deallocated s) (struct.2.assume_requires_ctx s) (struct.2.assert_requires_ctx s) (struct.2.assume_ensures_ctx s) v (struct.2.allow_allocate s) (struct.2.allow_deallocate s) (struct.2.$pad14 s) ))
(define-fun update-struct.2.allow_allocate ((s struct.2) (v (_ BitVec 8))) struct.2 (mk-struct.2 (struct.2.contract_assigns s) (struct.2.contract_frees s) (struct.2.contract_frees_append s) (struct.2.allocated s) (struct.2.deallocated s) (struct.2.linked_ptr_pred_ctx s) (struct.2.linked_allocated s) (struct.2.linked_deallocated s) (struct.2.assume_requires_ctx s) (struct.2.assert_requires_ctx s) (struct.2.assume_ensures_ctx s) (struct.2.assert_ensures_ctx s) v (struct.2.allow_deallocate s) (struct.2.$pad14 s) ))
(define-fun update-struct.2.allow_deallocate ((s struct.2) (v (_ BitVec 8))) struct.2 (mk-struct.2 (struct.2.contract_assigns s) (struct.2.contract_frees s) (struct.2.contract_frees_append s) (struct.2.allocated s) (struct.2.deallocated s) (struct.2.linked_ptr_pred_ctx s) (struct.2.linked_allocated s) (struct.2.linked_deallocated s) (struct.2.assume_requires_ctx s) (struct.2.assert_requires_ctx s) (struct.2.assume_ensures_ctx s) (struct.2.assert_ensures_ctx s) (struct.2.allow_allocate s) v (struct.2.$pad14 s) ))
(define-fun update-struct.2.$pad14 ((s struct.2) (v (_ BitVec 16))) struct.2 (mk-struct.2 (struct.2.contract_assigns s) (struct.2.contract_frees s) (struct.2.contract_frees_append s) (struct.2.allocated s) (struct.2.deallocated s) (struct.2.linked_ptr_pred_ctx s) (struct.2.linked_allocated s) (struct.2.linked_deallocated s) (struct.2.assume_requires_ctx s) (struct.2.assert_requires_ctx s) (struct.2.assume_ensures_ctx s) (struct.2.assert_ensures_ctx s) (struct.2.allow_allocate s) (struct.2.allow_deallocate s) v ))

; find_symbols
(declare-fun |mlk_shake128_absorb_once::__requires_write_set!0@1| () struct.2)
; find_symbols
(declare-fun |symex::args::3| () (_ BitVec 64))
; set_to true
(assert (= (concat (_ bv2 8) (_ bv0 56)) |symex::args::3|))

; find_symbols
(declare-fun |mlk_shake128_absorb_once::__ensures_write_set!0@1| () struct.2)
; find_symbols
(declare-fun |symex::args::4| () (_ BitVec 64))
; set_to true
(assert (= (concat (_ bv3 8) (_ bv0 56)) |symex::args::4|))

; find_symbols
(declare-fun |mlk_shake128_absorb_once::__ptr_pred_ctx!0@1| () struct.9)
; find_symbols
(declare-fun |symex::args::5| () (_ BitVec 64))
; set_to true
(assert (= (concat (_ bv4 8) (_ bv0 56)) |symex::args::5|))

; find_symbols
(declare-fun |symex::args::6| () (_ BitVec 64))
; set_to true
(assert (= (concat (_ bv2 8) (_ bv0 56)) |symex::args::6|))

; find_symbols
(declare-fun |symex::args::7| () (_ BitVec 64))
; set_to true
(assert (= (concat (_ bv4 8) (_ bv0 56)) |symex::args::7|))

; find_symbols
(declare-fun |symex::args::8| () (_ BitVec 64))
; set_to true
(assert (= (concat (_ bv3 8) (_ bv0 56)) |symex::args::8|))

; find_symbols
(declare-fun |symex::args::9| () (_ BitVec 64))
; set_to true
(assert (= (concat (_ bv4 8) (_ bv0 56)) |symex::args::9|))

; find_symbols
(declare-fun |mlk_shake128_absorb_once::state_wrapper!0@1| () (_ BitVec 64))
; find_symbols
(declare-fun |symex::args::10| () (_ BitVec 64))
; set_to true
(assert (= (concat (_ bv5 8) (_ bv0 56)) |symex::args::10|))

; find_symbols
(declare-fun |symex::args::11| () (_ BitVec 64))
; set_to true
(assert (= (concat (_ bv2 8) (_ bv0 56)) |symex::args::11|))

; find_symbols
(declare-fun |symex_dynamic::dynamic_object$9| () struct.0)
; find_symbols
(declare-fun |symex::args::12| () (_ BitVec 64))
; set_to true
(assert (= (concat (_ bv6 8) (_ bv0 56)) |symex::args::12|))

; find_symbols
(declare-fun |mlk_shake128_absorb_once::input_wrapper!0@1| () (_ BitVec 64))
; find_symbols
(declare-fun |symex::args::13| () (_ BitVec 64))
; set_to true
(assert (= (concat (_ bv7 8) (_ bv0 56)) |symex::args::13|))

; find_symbols
(declare-fun |symex::args::14| () (_ BitVec 64))
; set_to true
(assert (= |mlk_shake128_absorb_once::inlen_wrapper!0@1#1| |symex::args::14|))

; find_symbols
(declare-fun |symex::args::15| () (_ BitVec 64))
; set_to true
(assert (= (concat (_ bv2 8) (_ bv0 56)) |symex::args::15|))

; find_symbols
(declare-fun |symex_dynamic::dynamic_object$10| () (Array (_ BitVec 64) (_ BitVec 8)))
; find_symbols
(declare-fun |symex::args::16| () (_ BitVec 64))
; set_to true
(assert (= (concat (_ bv8 8) (_ bv0 56)) |symex::args::16|))

; find_symbols
(declare-fun |symex::args::17| () (_ BitVec 64))
; set_to true
(assert (= |__CPROVER_contracts_is_fresh::size!0@2#1| |symex::args::17|))

; find_symbols
(declare-fun |mlk_shake128_absorb_once::__contract_write_set!0@1| () struct.2)
; find_symbols
(declare-fun |symex::args::18| () (_ BitVec 64))
; set_to true
(assert (= (concat (_ bv9 8) (_ bv0 56)) |symex::args::18|))

; find_symbols
(declare-fun |symex::args::19| () (_ BitVec 64))
; set_to true
(assert (= (concat (_ bv6 8) (_ bv0 56)) |symex::args::19|))

; find_symbols
(declare-fun |symex::args::20| () (_ BitVec 64))
; set_to true
(assert (= (concat (_ bv8 8) (_ bv0 56)) |symex::args::20|))

; find_symbols
(declare-fun |symex::args::21| () (_ BitVec 64))
; set_to true
(assert (= |mlk_shake128_absorb_once::inlen_wrapper!0@1#1| |symex::args::21|))

; find_symbols
(declare-fun |symex::args::22| () (_ BitVec 64))
; set_to true
(assert (= (concat (_ bv9 8) (_ bv0 56)) |symex::args::22|))

; find_symbols
(declare-fun |symex::args::23| () (_ BitVec 64))
; set_to true
(assert (= (concat (_ bv2 8) (_ bv0 56)) |symex::args::23|))

; find_symbols
(declare-fun |symex::args::24| () (_ BitVec 64))
; set_to true
(assert (= (concat (_ bv9 8) (_ bv0 56)) |symex::args::24|))

; find_symbols
(declare-fun |symex::args::25| () (_ BitVec 64))
; set_to true
(assert (= (concat (_ bv6 8) (_ bv0 56)) |symex::args::25|))

; find_symbols
(declare-fun |symex::args::26| () (_ BitVec 64))
; set_to true
(assert (= (concat (_ bv6 8) (_ bv0 56)) |symex::args::26|))

; find_symbols
(declare-fun |symex::args::27| () (_ BitVec 64))
; set_to true
(assert (= (concat (_ bv8 8) (_ bv0 56)) |symex::args::27|))

; find_symbols
(declare-fun |symex::args::28| () (_ BitVec 64))
; set_to true
(assert (= |mlk_shake128_absorb_once::inlen_wrapper!0@1#1| |symex::args::28|))

; find_symbols
(declare-fun |symex::args::29| () (_ BitVec 64))
; set_to true
(assert (= (concat (_ bv9 8) (_ bv0 56)) |symex::args::29|))

; find_symbols
(declare-fun |symex::args::30| () (_ BitVec 64))
; set_to true
(assert (= (concat (_ bv2 8) (_ bv0 56)) |symex::args::30|))

; find_symbols
(declare-fun |symex::args::31| () (_ BitVec 64))
; set_to true
(assert (= (concat (_ bv6 8) (_ bv0 56)) |symex::args::31|))

; find_symbols
(declare-fun |symex::args::32| () (_ BitVec 64))
; set_to true
(assert (= (concat (_ bv8 8) (_ bv0 56)) |symex::args::32|))

; find_symbols
(declare-fun |symex::args::33| () (_ BitVec 64))
; set_to true
(assert (= |mlk_shake128_absorb_once::inlen_wrapper!0@1#1| |symex::args::33|))

; find_symbols
(declare-fun |symex::args::34| () (_ BitVec 64))
; set_to true
(assert (= (concat (_ bv9 8) (_ bv0 56)) |symex::args::34|))

; find_symbols
(declare-fun |symex::args::35| () (_ BitVec 64))
; set_to true
(assert (= (concat (_ bv6 8) (_ bv0 56)) |symex::args::35|))

; find_symbols
(declare-fun |symex::args::36| () (_ BitVec 64))
; set_to true
(assert (= (concat (_ bv8 8) (_ bv0 56)) |symex::args::36|))

; find_symbols
(declare-fun |symex::args::37| () (_ BitVec 64))
; set_to true
(assert (= |mlk_shake128_absorb_once::inlen!0@1#1| |symex::args::37|))

; find_symbols
(declare-fun |symex::args::38| () (_ BitVec 64))
; set_to true
(assert (= (concat (_ bv9 8) (_ bv0 56)) |symex::args::38|))

; find_symbols
(declare-fun |mlk_keccak_absorb_once::__requires_write_set!0@1| () struct.2)
; find_symbols
(declare-fun |symex::args::39| () (_ BitVec 64))
; set_to true
(assert (= (concat (_ bv10 8) (_ bv0 56)) |symex::args::39|))

; find_symbols
(declare-fun |mlk_keccak_absorb_once::__ensures_write_set!0@1| () struct.2)
; find_symbols
(declare-fun |symex::args::40| () (_ BitVec 64))
; set_to true
(assert (= (concat (_ bv11 8) (_ bv0 56)) |symex::args::40|))

; find_symbols
(declare-fun |mlk_keccak_absorb_once::__ptr_pred_ctx!0@1| () struct.9)
; find_symbols
(declare-fun |symex::args::41| () (_ BitVec 64))
; set_to true
(assert (= (concat (_ bv12 8) (_ bv0 56)) |symex::args::41|))

; find_symbols
(declare-fun |symex::args::42| () (_ BitVec 64))
; set_to true
(assert (= (concat (_ bv10 8) (_ bv0 56)) |symex::args::42|))

; find_symbols
(declare-fun |symex::args::43| () (_ BitVec 64))
; set_to true
(assert (= (concat (_ bv12 8) (_ bv0 56)) |symex::args::43|))

; find_symbols
(declare-fun |symex::args::44| () (_ BitVec 64))
; set_to true
(assert (= (concat (_ bv11 8) (_ bv0 56)) |symex::args::44|))

; find_symbols
(declare-fun |symex::args::45| () (_ BitVec 64))
; set_to true
(assert (= (concat (_ bv12 8) (_ bv0 56)) |symex::args::45|))

; find_symbols
(declare-fun |mlk_keccak_absorb_once::s_wrapper!0@1| () (_ BitVec 64))
; find_symbols
(declare-fun |symex::args::46| () (_ BitVec 64))
; set_to true
(assert (= (concat (_ bv13 8) (_ bv0 56)) |symex::args::46|))

; find_symbols
(declare-fun |symex::args::47| () (_ BitVec 64))
; set_to true
(assert (= (concat (_ bv10 8) (_ bv0 56)) |symex::args::47|))

; find_symbols
(declare-fun |symex::args::48| () (_ BitVec 64))
; set_to true
(assert (= (concat (_ bv6 8) (_ bv0 56)) |symex::args::48|))

; find_symbols
(declare-fun |mlk_keccak_absorb_once::m_wrapper!0@1| () (_ BitVec 64))
; find_symbols
(declare-fun |symex::args::49| () (_ BitVec 64))
; set_to true
(assert (= (concat (_ bv14 8) (_ bv0 56)) |symex::args::49|))

; find_symbols
(declare-fun |symex::args::50| () (_ BitVec 64))
; set_to true
(assert (= |mlk_keccak_absorb_once::mlen_wrapper!0@1#1| |symex::args::50|))

; find_symbols
(declare-fun |symex::args::51| () (_ BitVec 64))
; set_to true
(assert (= (concat (_ bv10 8) (_ bv0 56)) |symex::args::51|))

; find_symbols
(declare-fun |symex::args::52| () (_ BitVec 64))
; set_to true
(assert (= (concat (_ bv8 8) (_ bv0 56)) |symex::args::52|))

; find_symbols
(declare-fun |symex::args::53| () (_ BitVec 64))
; set_to true
(assert (= |__CPROVER_contracts_is_fresh::size!0@4#1| |symex::args::53|))

; convert
; Converting var_no 27 with expr ID of =>
(define-fun B27 () Bool (=> (and true B22 B23) (=> |__CPROVER_contracts_is_fresh::$tmp::return_value___VERIFIER_nondet___CPROVER_bool$1!0@2#2| (bvuge ((_ zero_extend 1) |symex_dynamic::dynamic_object_size!0#1|) ((_ zero_extend 1) |__CPROVER_contracts_car_create::size!0@2#1|)))))

; convert
; Converting var_no 28 with expr ID of =>
(define-fun B28 () Bool (=> (and true B22 B23) (=> |__CPROVER_contracts_is_fresh::$tmp::return_value___VERIFIER_nondet___CPROVER_bool$1!0@2#2| (not (bvuge |__CPROVER_contracts_car_create::size!0@2#1| (_ bv36028797018963969 64))))))

; convert
; Converting var_no 29 with expr ID of =>
(define-fun B29 () Bool (=> (and true B22 B23) (=> |__CPROVER_contracts_is_fresh::$tmp::return_value___VERIFIER_nondet___CPROVER_bool$1!0@2#2| (not (= (bvor (_ bv1 32) (ite (bvuge |__CPROVER_contracts_car_create::size!0@2#1| (_ bv36028797018963969 64)) (_ bv0 32) (_ bv1 32))) (_ bv0 32))))))

; convert
; Converting var_no 30 with expr ID of =>
(define-fun B30 () Bool (=> (and true B22 B23) (not (bvuge |mlk_keccak_absorb_once::mlen_wrapper!0@1#1| (_ bv4503599627370496 64)))))

; convert
; Converting var_no 31 with expr ID of =>
(define-fun B31 () Bool (=> (and true B22 B23) (bvuge ((_ zero_extend 1) |symex_dynamic::dynamic_object_size!0#1|) ((_ zero_extend 1) |__CPROVER_contracts_car_create::size!0@4#1|))))

; convert
; Converting var_no 32 with expr ID of =>
(define-fun B32 () Bool (=> (and true B22 B23) (not (bvuge |__CPROVER_contracts_car_create::size!0@4#1| (_ bv36028797018963969 64)))))

; convert
; Converting var_no 33 with expr ID of =>
(define-fun B33 () Bool (=> (and true B22 B23) (not (= (bvor (_ bv1 32) (ite (bvuge |__CPROVER_contracts_car_create::size!0@4#1| (_ bv36028797018963969 64)) (_ bv0 32) (_ bv1 32))) (_ bv0 32)))))

; convert
; Converting var_no 34 with expr ID of =>
(define-fun B34 () Bool (=> (and true B22 B23) |goto_convertt::return_value___CPROVER_is_fresh$2!0@1#2|))

; set_to true
(assert (or (not B27) (not B28) (not B29) (not B30) (not B31) (not B32) (not B33) (not B34)))

; convert
; Converting var_no 35 with expr ID of not
(define-fun B35 () Bool (not (and B27 B31)))

; convert
; Converting var_no 36 with expr ID of not
(define-fun B36 () Bool (not (and B28 B32)))

; convert
; Converting var_no 37 with expr ID of not
(define-fun B37 () Bool (not (and B29 B33)))

; convert
; Converting var_no 38 with expr ID of not
(define-fun B38 () Bool (not B30))

; convert
; Converting var_no 39 with expr ID of not
(define-fun B39 () Bool (not B34))

; set_to true
(assert (or B35 B36 B37 B38 B39))

(check-sat)


(exit)
; end of SMT2 file
